unsat
(:max-memory         18.05
 :memory             17.95
 :nlsat-conflicts    8
 :nlsat-decisions    2
 :nlsat-propagations 25
 :nlsat-stages       7
 :num-allocs         28240
 :rlimit-count       3473
 :time               0.00
 :total-time         0.01)
